120
1000
200
200
200
198
198
197
197
196
196
196
196
196
194
194
194
193
191
191
190
190
190
188
188
188
188
188
187
187
186
185
185
185
185
184
184
184
183
183
183
183
182
182
182
181
181
181
181
180
180
180
180
180
180
180
179
179
179
178
178
178
177
177
176
176
175
173
172
172
171
171
170
170
168
167
167
167
167
167
166
166
166
166
165
165
164
164
164
164
163
162
162
162
162
161
161
161
160
160
159
159
159
157
156
155
155
155
155
155
154
154
154
154
154
153
153
153
152
152
151
151
